/* Objective function */
max: 4.22x1 + 3.62x2 + 3.43x3 + 3.10x4 + 6.75x5;

/* Constraints */
315x1 + 200x2 + 195x3 +180x4 + 280x5 <= 38665000;
230x1 + 110x2 + 140x3 +100x4 + 200x5 <= 26638120;
11.6x1 + 5x2 + 6.3x3 +4.15x4 + 7.5x5 <= 1009008;
30.6x1 + 19.1x2 + 20.1x3 + 16.5x4 + 37.5x5 <= 4979414;
1.8x1 + 1.1x2 + 1.7x3 + 1.1x4 + 2.6x5 <= 346200;
22.7x1 + 5.4x2 + 10.4x3 + 4.5x4 + 20.1x5 <= 2670300;
2x1 + 1.3x2 + 1.9x3 + 1.3x4 + 2.6x5 <= 371700;
x1 <= 15886;
x2 <= 23916;
x3 <= 13319;
x4 <= 25667;
x5 <= 12864;
